(declare-fun x_0 () Int)
(declare-fun y_0 () Real)
(declare-fun return () Real)
(assert (= y_0 (- (* x_0 x_0) 4.0)))
(assert (= return y_0))
(assert (and (>= (+ x_0 1.0) 0) (<= x_0 1.0)))
(assert (not (distinct return 0.0)))
(check-sat)
(get-model)